30
1 0 16
2 0 4
2 1 10
3 0 14
3 1 13
3 2 6
4 0 7
4 1 10
4 2 1
4 3 7
5 0 7
5 1 14
5 2 5
5 3 3
5 4 10
6 0 19
6 1 16
6 2 16
6 3 12
6 4 12
6 5 10
7 0 11
7 1 16
7 2 6
7 3 1
7 4 3
7 5 12
7 6 9
8 0 20
8 1 2
8 2 19
8 3 15
8 4 8
8 5 15
8 6 13
8 7 17
9 0 19
9 1 18
9 2 20
9 3 2
9 4 3
9 5 19
9 6 18
9 7 9
9 8 13
10 0 4
10 1 2
10 2 16
10 3 20
10 4 8
10 5 15
10 6 17
10 7 11
10 8 8
10 9 11
11 0 13
11 1 1
11 2 15
11 3 16
11 4 15
11 5 3
11 6 15
11 7 1
11 8 5
11 9 3
11 10 10
12 0 7
12 1 4
12 2 7
12 3 3
12 4 3
12 5 18
12 6 20
12 7 20
12 8 6
12 9 12
12 10 13
12 11 17
13 0 3
13 1 3
13 2 17
13 3 13
13 4 16
13 5 16
13 6 11
13 7 20
13 8 2
13 9 18
13 10 10
13 11 9
13 12 3
14 0 7
14 1 6
14 2 7
14 3 7
14 4 1
14 5 5
14 6 11
14 7 6
14 8 10
14 9 11
14 10 19
14 11 16
14 12 13
14 13 2
15 0 4
15 1 4
15 2 7
15 3 7
15 4 7
15 5 4
15 6 3
15 7 13
15 8 15
15 9 19
15 10 1
15 11 2
15 12 10
15 13 20
15 14 5
16 0 7
16 1 20
16 2 7
16 3 17
16 4 15
16 5 14
16 6 18
16 7 8
16 8 18
16 9 11
16 10 3
16 11 19
16 12 4
16 13 11
16 14 10
16 15 2
17 0 6
17 1 15
17 2 9
17 3 5
17 4 12
17 5 17
17 6 8
17 7 5
17 8 7
17 9 4
17 10 4
17 11 17
17 12 6
17 13 3
17 14 4
17 15 16
17 16 2
18 0 7
18 1 11
18 2 7
18 3 3
18 4 19
18 5 5
18 6 3
18 7 6
18 8 5
18 9 6
18 10 5
18 11 19
18 12 1
18 13 4
18 14 19
18 15 14
18 16 13
18 17 8
19 0 12
19 1 19
19 2 8
19 3 4
19 4 16
19 5 5
19 6 5
19 7 9
19 8 4
19 9 11
19 10 14
19 11 4
19 12 3
19 13 2
19 14 19
19 15 3
19 16 3
19 17 5
19 18 3
20 0 8
20 1 3
20 2 13
20 3 14
20 4 19
20 5 9
20 6 7
20 7 13
20 8 5
20 9 12
20 10 10
20 11 4
20 12 9
20 13 1
20 14 11
20 15 16
20 16 10
20 17 4
20 18 19
20 19 3
21 0 3
21 1 12
21 2 15
21 3 17
21 4 13
21 5 12
21 6 2
21 7 4
21 8 13
21 9 18
21 10 16
21 11 11
21 12 10
21 13 11
21 14 16
21 15 15
21 16 19
21 17 20
21 18 16
21 19 6
21 20 3
22 0 8
22 1 16
22 2 6
22 3 6
22 4 20
22 5 3
22 6 14
22 7 6
22 8 10
22 9 9
22 10 14
22 11 8
22 12 5
22 13 20
22 14 9
22 15 9
22 16 11
22 17 8
22 18 18
22 19 15
22 20 1
22 21 13
23 0 2
23 1 18
23 2 5
23 3 9
23 4 10
23 5 13
23 6 10
23 7 6
23 8 18
23 9 14
23 10 1
23 11 17
23 12 19
23 13 9
23 14 13
23 15 15
23 16 3
23 17 15
23 18 14
23 19 16
23 20 14
23 21 17
23 22 11
24 0 9
24 1 5
24 2 13
24 3 3
24 4 16
24 5 13
24 6 20
24 7 8
24 8 8
24 9 17
24 10 3
24 11 11
24 12 17
24 13 13
24 14 17
24 15 13
24 16 10
24 17 14
24 18 13
24 19 2
24 20 11
24 21 12
24 22 11
24 23 18
25 0 18
25 1 1
25 2 4
25 3 3
25 4 3
25 5 2
25 6 10
25 7 6
25 8 9
25 9 1
25 10 5
25 11 8
25 12 4
25 13 2
25 14 17
25 15 9
25 16 10
25 17 4
25 18 14
25 19 1
25 20 15
25 21 20
25 22 16
25 23 4
25 24 11
26 0 18
26 1 16
26 2 4
26 3 15
26 4 12
26 5 19
26 6 9
26 7 3
26 8 6
26 9 15
26 10 2
26 11 12
26 12 15
26 13 14
26 14 11
26 15 5
26 16 3
26 17 6
26 18 16
26 19 17
26 20 12
26 21 12
26 22 13
26 23 3
26 24 13
26 25 18
27 0 12
27 1 8
27 2 13
27 3 18
27 4 17
27 5 20
27 6 16
27 7 15
27 8 14
27 9 14
27 10 12
27 11 15
27 12 3
27 13 8
27 14 11
27 15 8
27 16 18
27 17 4
27 18 11
27 19 19
27 20 10
27 21 19
27 22 17
27 23 11
27 24 12
27 25 1
27 26 9
28 0 4
28 1 20
28 2 19
28 3 15
28 4 19
28 5 5
28 6 5
28 7 14
28 8 15
28 9 20
28 10 16
28 11 10
28 12 20
28 13 18
28 14 9
28 15 18
28 16 15
28 17 15
28 18 10
28 19 7
28 20 1
28 21 13
28 22 14
28 23 19
28 24 19
28 25 4
28 26 8
28 27 14
29 0 10
29 1 5
29 2 1
29 3 6
29 4 4
29 5 10
29 6 5
29 7 17
29 8 15
29 9 2
29 10 2
29 11 6
29 12 1
29 13 20
29 14 20
29 15 19
29 16 12
29 17 11
29 18 7
29 19 17
29 20 5
29 21 19
29 22 5
29 23 13
29 24 3
29 25 5
29 26 13
29 27 8
29 28 8
